* SDPA sparse format data
* File name = st_glmp_ss1.dat-s
* mDim =  40, nBlock = 16
* size of bVect = 1 *  40
* size of sparseMatrix =  729 * 5
 40
 16
-72 -14  3  5  5  5  5  5  5  5  5  5  3  5  3  5 
   0.0000000000    0.0000000000    1.0000000000    0.0000000000    0.0000000000    0.0000000000    0.0000000000    0.0000000000    0.0000000000    0.0000000000    0.0000000000    0.0000000000    0.0000000000    0.0000000000    0.0000000000    1.0000000000    0.0000000000    0.0000000000    0.0000000000    0.0000000000    0.0000000000    0.0000000000    0.0000000000    0.0000000000    0.0000000000    0.0000000000    0.0000000000    0.0000000000    0.0000000000    0.0000000000    0.0000000000    0.0000000000    0.0000000000    0.0000000000    0.0000000000    0.0000000000    0.0000000000    0.0000000000    0.0000000000    0.0000000000 
  3   1   1   1   -0.0769230769
  1   1   1   1    1.0000000000
  8   1   2   2   -0.0769230769
  6   1   2   2    1.0000000000
 14   1   3   3   -0.0769230769
  8   1   3   3    1.0000000000
 20   1   4   4   -0.0769230769
 18   1   4   4    1.0000000000
 26   1   5   5   -0.0769230769
 20   1   5   5    1.0000000000
 36   1   6   6   -0.0769230769
 26   1   6   6    1.0000000000
  0   1   7   7   -0.7692307692
  4   1   7   7   -0.0769230769
  1   1   7   7    1.0000000000
  2   1   7   7   -1.0000000000
  1   1   8   8    0.7692307692
  9   1   8   8   -0.0769230769
  6   1   8   8    1.0000000000
  7   1   8   8   -1.0000000000
  2   1   9   9    0.7692307692
 12   1   9   9   -0.0769230769
  7   1   9   9    1.0000000000
 11   1   9   9   -1.0000000000
  4   1  10  10    0.7692307692
 15   1  10  10   -0.0769230769
  9   1  10  10    1.0000000000
 12   1  10  10   -1.0000000000
  5   1  11  11    0.7692307692
 16   1  11  11   -0.0769230769
 10   1  11  11    1.0000000000
 13   1  11  11   -1.0000000000
  6   1  12  12    0.7692307692
 21   1  12  12   -0.0769230769
 18   1  12  12    1.0000000000
 19   1  12  12   -1.0000000000
  7   1  13  13    0.7692307692
 24   1  13  13   -0.0769230769
 19   1  13  13    1.0000000000
 23   1  13  13   -1.0000000000
  9   1  14  14    0.7692307692
 27   1  14  14   -0.0769230769
 21   1  14  14    1.0000000000
 24   1  14  14   -1.0000000000
 10   1  15  15    0.7692307692
 28   1  15  15   -0.0769230769
 22   1  15  15    1.0000000000
 25   1  15  15   -1.0000000000
 11   1  16  16    0.7692307692
 31   1  16  16   -0.0769230769
 23   1  16  16    1.0000000000
 30   1  16  16   -1.0000000000
 12   1  17  17    0.7692307692
 33   1  17  17   -0.0769230769
 24   1  17  17    1.0000000000
 31   1  17  17   -1.0000000000
 13   1  18  18    0.7692307692
 34   1  18  18   -0.0769230769
 25   1  18  18    1.0000000000
 32   1  18  18   -1.0000000000
 15   1  19  19    0.7692307692
 37   1  19  19   -0.0769230769
 27   1  19  19    1.0000000000
 33   1  19  19   -1.0000000000
 16   1  20  20    0.7692307692
 38   1  20  20   -0.0769230769
 28   1  20  20    1.0000000000
 34   1  20  20   -1.0000000000
 17   1  21  21    0.7692307692
 39   1  21  21   -0.0769230769
 29   1  21  21    1.0000000000
 35   1  21  21   -1.0000000000
  0   1  22  22    0.4615384615
  5   1  22  22   -0.0769230769
  1   1  22  22    1.0000000000
  2   1  22  22    1.0000000000
  1   1  23  23   -0.4615384615
 10   1  23  23   -0.0769230769
  6   1  23  23    1.0000000000
  7   1  23  23    1.0000000000
  2   1  24  24   -0.4615384615
 13   1  24  24   -0.0769230769
  7   1  24  24    1.0000000000
 11   1  24  24    1.0000000000
  4   1  25  25   -0.4615384615
 16   1  25  25   -0.0769230769
  9   1  25  25    1.0000000000
 12   1  25  25    1.0000000000
  5   1  26  26   -0.4615384615
 17   1  26  26   -0.0769230769
 10   1  26  26    1.0000000000
 13   1  26  26    1.0000000000
  6   1  27  27   -0.4615384615
 22   1  27  27   -0.0769230769
 18   1  27  27    1.0000000000
 19   1  27  27    1.0000000000
  7   1  28  28   -0.4615384615
 25   1  28  28   -0.0769230769
 19   1  28  28    1.0000000000
 23   1  28  28    1.0000000000
  9   1  29  29   -0.4615384615
 28   1  29  29   -0.0769230769
 21   1  29  29    1.0000000000
 24   1  29  29    1.0000000000
 10   1  30  30   -0.4615384615
 29   1  30  30   -0.0769230769
 22   1  30  30    1.0000000000
 25   1  30  30    1.0000000000
 11   1  31  31   -0.4615384615
 32   1  31  31   -0.0769230769
 23   1  31  31    1.0000000000
 30   1  31  31    1.0000000000
 12   1  32  32   -0.4615384615
 34   1  32  32   -0.0769230769
 24   1  32  32    1.0000000000
 31   1  32  32    1.0000000000
 13   1  33  33   -0.4615384615
 35   1  33  33   -0.0769230769
 25   1  33  33    1.0000000000
 32   1  33  33    1.0000000000
 15   1  34  34   -0.4615384615
 38   1  34  34   -0.0769230769
 27   1  34  34    1.0000000000
 33   1  34  34    1.0000000000
 16   1  35  35   -0.4615384615
 39   1  35  35   -0.0769230769
 28   1  35  35    1.0000000000
 34   1  35  35    1.0000000000
 17   1  36  36   -0.4615384615
 40   1  36  36   -0.0769230769
 29   1  36  36    1.0000000000
 35   1  36  36    1.0000000000
  3   1  37  37    0.0769230769
  1   1  37  37   -1.0000000000
  8   1  38  38    0.0769230769
  6   1  38  38   -1.0000000000
 14   1  39  39    0.0769230769
  8   1  39  39   -1.0000000000
 20   1  40  40    0.0769230769
 18   1  40  40   -1.0000000000
 26   1  41  41    0.0769230769
 20   1  41  41   -1.0000000000
 36   1  42  42    0.0769230769
 26   1  42  42   -1.0000000000
  0   1  43  43    0.7692307692
  4   1  43  43    0.0769230769
  1   1  43  43   -1.0000000000
  2   1  43  43    1.0000000000
  1   1  44  44   -0.7692307692
  9   1  44  44    0.0769230769
  6   1  44  44   -1.0000000000
  7   1  44  44    1.0000000000
  2   1  45  45   -0.7692307692
 12   1  45  45    0.0769230769
  7   1  45  45   -1.0000000000
 11   1  45  45    1.0000000000
  4   1  46  46   -0.7692307692
 15   1  46  46    0.0769230769
  9   1  46  46   -1.0000000000
 12   1  46  46    1.0000000000
  5   1  47  47   -0.7692307692
 16   1  47  47    0.0769230769
 10   1  47  47   -1.0000000000
 13   1  47  47    1.0000000000
  6   1  48  48   -0.7692307692
 21   1  48  48    0.0769230769
 18   1  48  48   -1.0000000000
 19   1  48  48    1.0000000000
  7   1  49  49   -0.7692307692
 24   1  49  49    0.0769230769
 19   1  49  49   -1.0000000000
 23   1  49  49    1.0000000000
  9   1  50  50   -0.7692307692
 27   1  50  50    0.0769230769
 21   1  50  50   -1.0000000000
 24   1  50  50    1.0000000000
 10   1  51  51   -0.7692307692
 28   1  51  51    0.0769230769
 22   1  51  51   -1.0000000000
 25   1  51  51    1.0000000000
 11   1  52  52   -0.7692307692
 31   1  52  52    0.0769230769
 23   1  52  52   -1.0000000000
 30   1  52  52    1.0000000000
 12   1  53  53   -0.7692307692
 33   1  53  53    0.0769230769
 24   1  53  53   -1.0000000000
 31   1  53  53    1.0000000000
 13   1  54  54   -0.7692307692
 34   1  54  54    0.0769230769
 25   1  54  54   -1.0000000000
 32   1  54  54    1.0000000000
 15   1  55  55   -0.7692307692
 37   1  55  55    0.0769230769
 27   1  55  55   -1.0000000000
 33   1  55  55    1.0000000000
 16   1  56  56   -0.7692307692
 38   1  56  56    0.0769230769
 28   1  56  56   -1.0000000000
 34   1  56  56    1.0000000000
 17   1  57  57   -0.7692307692
 39   1  57  57    0.0769230769
 29   1  57  57   -1.0000000000
 35   1  57  57    1.0000000000
  0   1  58  58   -0.4615384615
  5   1  58  58    0.0769230769
  1   1  58  58   -1.0000000000
  2   1  58  58   -1.0000000000
  1   1  59  59    0.4615384615
 10   1  59  59    0.0769230769
  6   1  59  59   -1.0000000000
  7   1  59  59   -1.0000000000
  2   1  60  60    0.4615384615
 13   1  60  60    0.0769230769
  7   1  60  60   -1.0000000000
 11   1  60  60   -1.0000000000
  4   1  61  61    0.4615384615
 16   1  61  61    0.0769230769
  9   1  61  61   -1.0000000000
 12   1  61  61   -1.0000000000
  5   1  62  62    0.4615384615
 17   1  62  62    0.0769230769
 10   1  62  62   -1.0000000000
 13   1  62  62   -1.0000000000
  6   1  63  63    0.4615384615
 22   1  63  63    0.0769230769
 18   1  63  63   -1.0000000000
 19   1  63  63   -1.0000000000
  7   1  64  64    0.4615384615
 25   1  64  64    0.0769230769
 19   1  64  64   -1.0000000000
 23   1  64  64   -1.0000000000
  9   1  65  65    0.4615384615
 28   1  65  65    0.0769230769
 21   1  65  65   -1.0000000000
 24   1  65  65   -1.0000000000
 10   1  66  66    0.4615384615
 29   1  66  66    0.0769230769
 22   1  66  66   -1.0000000000
 25   1  66  66   -1.0000000000
 11   1  67  67    0.4615384615
 32   1  67  67    0.0769230769
 23   1  67  67   -1.0000000000
 30   1  67  67   -1.0000000000
 12   1  68  68    0.4615384615
 34   1  68  68    0.0769230769
 24   1  68  68   -1.0000000000
 31   1  68  68   -1.0000000000
 13   1  69  69    0.4615384615
 35   1  69  69    0.0769230769
 25   1  69  69   -1.0000000000
 32   1  69  69   -1.0000000000
 15   1  70  70    0.4615384615
 38   1  70  70    0.0769230769
 27   1  70  70   -1.0000000000
 33   1  70  70   -1.0000000000
 16   1  71  71    0.4615384615
 39   1  71  71    0.0769230769
 28   1  71  71   -1.0000000000
 34   1  71  71   -1.0000000000
 17   1  72  72    0.4615384615
 40   1  72  72    0.0769230769
 29   1  72  72   -1.0000000000
 35   1  72  72   -1.0000000000
  6   2   1   1    1.0000000000
  6   2   2   2   -1.0000000000
  0   2   2   2   -1.0000000000
  7   2   3   3    1.0000000000
  7   2   4   4   -1.0000000000
  0   2   4   4   -1.0000000000
 11   2   5   5    1.0000000000
 11   2   6   6   -1.0000000000
  0   2   6   6   -1.0000000000
 18   2   7   7    1.0000000000
 18   2   8   8   -1.0000000000
  0   2   8   8   -1.0000000000
 19   2   9   9    1.0000000000
 19   2  10  10   -1.0000000000
  0   2  10  10   -1.0000000000
 23   2  11  11    1.0000000000
 23   2  12  12   -1.0000000000
  0   2  12  12   -1.0000000000
 30   2  13  13    1.0000000000
 30   2  14  14   -1.0000000000
  0   2  14  14   -1.0000000000
  0   3   1   1   -1.0000000000
  1   3   1   2    1.0000000000
  3   3   1   3    1.0000000000
  6   3   2   2    1.0000000000
  8   3   2   3    1.0000000000
 14   3   3   3    1.0000000000
  0   4   1   1   -1.0000000000
  1   4   1   2    1.0000000000
  2   4   1   3    1.0000000000
  4   4   1   4    1.0000000000
  5   4   1   5    1.0000000000
  6   4   2   2    1.0000000000
  7   4   2   3    1.0000000000
  9   4   2   4    1.0000000000
 10   4   2   5    1.0000000000
 11   4   3   3    1.0000000000
 12   4   3   4    1.0000000000
 13   4   3   5    1.0000000000
 15   4   4   4    1.0000000000
 16   4   4   5    1.0000000000
 17   4   5   5    1.0000000000
  0   5   1   1   -1.0000000000
  1   5   1   1   -0.1300000000
  2   5   1   1    0.2600000000
  1   5   1   2    1.0000000000
  6   5   1   2   -0.1300000000
  7   5   1   2    0.2600000000
  2   5   1   3    1.0000000000
  7   5   1   3   -0.1300000000
 11   5   1   3    0.2600000000
  4   5   1   4    1.0000000000
  9   5   1   4   -0.1300000000
 12   5   1   4    0.2600000000
  5   5   1   5    1.0000000000
 10   5   1   5   -0.1300000000
 13   5   1   5    0.2600000000
  6   5   2   2    1.0000000000
 18   5   2   2   -0.1300000000
 19   5   2   2    0.2600000000
  7   5   2   3    1.0000000000
 19   5   2   3   -0.1300000000
 23   5   2   3    0.2600000000
  9   5   2   4    1.0000000000
 21   5   2   4   -0.1300000000
 24   5   2   4    0.2600000000
 10   5   2   5    1.0000000000
 22   5   2   5   -0.1300000000
 25   5   2   5    0.2600000000
 11   5   3   3    1.0000000000
 23   5   3   3   -0.1300000000
 30   5   3   3    0.2600000000
 12   5   3   4    1.0000000000
 24   5   3   4   -0.1300000000
 31   5   3   4    0.2600000000
 13   5   3   5    1.0000000000
 25   5   3   5   -0.1300000000
 32   5   3   5    0.2600000000
 15   5   4   4    1.0000000000
 27   5   4   4   -0.1300000000
 33   5   4   4    0.2600000000
 16   5   4   5    1.0000000000
 28   5   4   5   -0.1300000000
 34   5   4   5    0.2600000000
 17   5   5   5    1.0000000000
 29   5   5   5   -0.1300000000
 35   5   5   5    0.2600000000
  0   6   1   1    0.2307692308
  1   6   1   1    0.7500000000
  2   6   1   1    1.0000000000
  1   6   1   2   -0.2307692308
  6   6   1   2    0.7500000000
  7   6   1   2    1.0000000000
  2   6   1   3   -0.2307692308
  7   6   1   3    0.7500000000
 11   6   1   3    1.0000000000
  4   6   1   4   -0.2307692308
  9   6   1   4    0.7500000000
 12   6   1   4    1.0000000000
  5   6   1   5   -0.2307692308
 10   6   1   5    0.7500000000
 13   6   1   5    1.0000000000
  6   6   2   2   -0.2307692308
 18   6   2   2    0.7500000000
 19   6   2   2    1.0000000000
  7   6   2   3   -0.2307692308
 19   6   2   3    0.7500000000
 23   6   2   3    1.0000000000
  9   6   2   4   -0.2307692308
 21   6   2   4    0.7500000000
 24   6   2   4    1.0000000000
 10   6   2   5   -0.2307692308
 22   6   2   5    0.7500000000
 25   6   2   5    1.0000000000
 11   6   3   3   -0.2307692308
 23   6   3   3    0.7500000000
 30   6   3   3    1.0000000000
 12   6   3   4   -0.2307692308
 24   6   3   4    0.7500000000
 31   6   3   4    1.0000000000
 13   6   3   5   -0.2307692308
 25   6   3   5    0.7500000000
 32   6   3   5    1.0000000000
 15   6   4   4   -0.2307692308
 27   6   4   4    0.7500000000
 33   6   4   4    1.0000000000
 16   6   4   5   -0.2307692308
 28   6   4   5    0.7500000000
 34   6   4   5    1.0000000000
 17   6   5   5   -0.2307692308
 29   6   5   5    0.7500000000
 35   6   5   5    1.0000000000
  0   7   1   1   -1.0000000000
  1   7   1   1    0.1300000000
  2   7   1   1    0.1300000000
  1   7   1   2    1.0000000000
  6   7   1   2    0.1300000000
  7   7   1   2    0.1300000000
  2   7   1   3    1.0000000000
  7   7   1   3    0.1300000000
 11   7   1   3    0.1300000000
  4   7   1   4    1.0000000000
  9   7   1   4    0.1300000000
 12   7   1   4    0.1300000000
  5   7   1   5    1.0000000000
 10   7   1   5    0.1300000000
 13   7   1   5    0.1300000000
  6   7   2   2    1.0000000000
 18   7   2   2    0.1300000000
 19   7   2   2    0.1300000000
  7   7   2   3    1.0000000000
 19   7   2   3    0.1300000000
 23   7   2   3    0.1300000000
  9   7   2   4    1.0000000000
 21   7   2   4    0.1300000000
 24   7   2   4    0.1300000000
 10   7   2   5    1.0000000000
 22   7   2   5    0.1300000000
 25   7   2   5    0.1300000000
 11   7   3   3    1.0000000000
 23   7   3   3    0.1300000000
 30   7   3   3    0.1300000000
 12   7   3   4    1.0000000000
 24   7   3   4    0.1300000000
 31   7   3   4    0.1300000000
 13   7   3   5    1.0000000000
 25   7   3   5    0.1300000000
 32   7   3   5    0.1300000000
 15   7   4   4    1.0000000000
 27   7   4   4    0.1300000000
 33   7   4   4    0.1300000000
 16   7   4   5    1.0000000000
 28   7   4   5    0.1300000000
 34   7   4   5    0.1300000000
 17   7   5   5    1.0000000000
 29   7   5   5    0.1300000000
 35   7   5   5    0.1300000000
  0   8   1   1   -1.0000000000
  1   8   1   1    0.1300000000
  2   8   1   1   -0.5200000000
  1   8   1   2    1.0000000000
  6   8   1   2    0.1300000000
  7   8   1   2   -0.5200000000
  2   8   1   3    1.0000000000
  7   8   1   3    0.1300000000
 11   8   1   3   -0.5200000000
  4   8   1   4    1.0000000000
  9   8   1   4    0.1300000000
 12   8   1   4   -0.5200000000
  5   8   1   5    1.0000000000
 10   8   1   5    0.1300000000
 13   8   1   5   -0.5200000000
  6   8   2   2    1.0000000000
 18   8   2   2    0.1300000000
 19   8   2   2   -0.5200000000
  7   8   2   3    1.0000000000
 19   8   2   3    0.1300000000
 23   8   2   3   -0.5200000000
  9   8   2   4    1.0000000000
 21   8   2   4    0.1300000000
 24   8   2   4   -0.5200000000
 10   8   2   5    1.0000000000
 22   8   2   5    0.1300000000
 25   8   2   5   -0.5200000000
 11   8   3   3    1.0000000000
 23   8   3   3    0.1300000000
 30   8   3   3   -0.5200000000
 12   8   3   4    1.0000000000
 24   8   3   4    0.1300000000
 31   8   3   4   -0.5200000000
 13   8   3   5    1.0000000000
 25   8   3   5    0.1300000000
 32   8   3   5   -0.5200000000
 15   8   4   4    1.0000000000
 27   8   4   4    0.1300000000
 33   8   4   4   -0.5200000000
 16   8   4   5    1.0000000000
 28   8   4   5    0.1300000000
 34   8   4   5   -0.5200000000
 17   8   5   5    1.0000000000
 29   8   5   5    0.1300000000
 35   8   5   5   -0.5200000000
  0   9   1   1   -0.6923076923
  1   9   1   1    0.5000000000
  2   9   1   1   -1.0000000000
  1   9   1   2    0.6923076923
  6   9   1   2    0.5000000000
  7   9   1   2   -1.0000000000
  2   9   1   3    0.6923076923
  7   9   1   3    0.5000000000
 11   9   1   3   -1.0000000000
  4   9   1   4    0.6923076923
  9   9   1   4    0.5000000000
 12   9   1   4   -1.0000000000
  5   9   1   5    0.6923076923
 10   9   1   5    0.5000000000
 13   9   1   5   -1.0000000000
  6   9   2   2    0.6923076923
 18   9   2   2    0.5000000000
 19   9   2   2   -1.0000000000
  7   9   2   3    0.6923076923
 19   9   2   3    0.5000000000
 23   9   2   3   -1.0000000000
  9   9   2   4    0.6923076923
 21   9   2   4    0.5000000000
 24   9   2   4   -1.0000000000
 10   9   2   5    0.6923076923
 22   9   2   5    0.5000000000
 25   9   2   5   -1.0000000000
 11   9   3   3    0.6923076923
 23   9   3   3    0.5000000000
 30   9   3   3   -1.0000000000
 12   9   3   4    0.6923076923
 24   9   3   4    0.5000000000
 31   9   3   4   -1.0000000000
 13   9   3   5    0.6923076923
 25   9   3   5    0.5000000000
 32   9   3   5   -1.0000000000
 15   9   4   4    0.6923076923
 27   9   4   4    0.5000000000
 33   9   4   4   -1.0000000000
 16   9   4   5    0.6923076923
 28   9   4   5    0.5000000000
 34   9   4   5   -1.0000000000
 17   9   5   5    0.6923076923
 29   9   5   5    0.5000000000
 35   9   5   5   -1.0000000000
  0  10   1   1   -1.0000000000
  1  10   1   1   -0.3900000000
  2  10   1   1   -0.5200000000
  1  10   1   2    1.0000000000
  6  10   1   2   -0.3900000000
  7  10   1   2   -0.5200000000
  2  10   1   3    1.0000000000
  7  10   1   3   -0.3900000000
 11  10   1   3   -0.5200000000
  4  10   1   4    1.0000000000
  9  10   1   4   -0.3900000000
 12  10   1   4   -0.5200000000
  5  10   1   5    1.0000000000
 10  10   1   5   -0.3900000000
 13  10   1   5   -0.5200000000
  6  10   2   2    1.0000000000
 18  10   2   2   -0.3900000000
 19  10   2   2   -0.5200000000
  7  10   2   3    1.0000000000
 19  10   2   3   -0.3900000000
 23  10   2   3   -0.5200000000
  9  10   2   4    1.0000000000
 21  10   2   4   -0.3900000000
 24  10   2   4   -0.5200000000
 10  10   2   5    1.0000000000
 22  10   2   5   -0.3900000000
 25  10   2   5   -0.5200000000
 11  10   3   3    1.0000000000
 23  10   3   3   -0.3900000000
 30  10   3   3   -0.5200000000
 12  10   3   4    1.0000000000
 24  10   3   4   -0.3900000000
 31  10   3   4   -0.5200000000
 13  10   3   5    1.0000000000
 25  10   3   5   -0.3900000000
 32  10   3   5   -0.5200000000
 15  10   4   4    1.0000000000
 27  10   4   4   -0.3900000000
 33  10   4   4   -0.5200000000
 16  10   4   5    1.0000000000
 28  10   4   5   -0.3900000000
 34  10   4   5   -0.5200000000
 17  10   5   5    1.0000000000
 29  10   5   5   -0.3900000000
 35  10   5   5   -0.5200000000
  0  11   1   1   -1.0000000000
  1  11   1   1   -1.0000000000
  2  11   1   1   -1.0000000000
  1  11   1   2    1.0000000000
  6  11   1   2   -1.0000000000
  7  11   1   2   -1.0000000000
  2  11   1   3    1.0000000000
  7  11   1   3   -1.0000000000
 11  11   1   3   -1.0000000000
  4  11   1   4    1.0000000000
  9  11   1   4   -1.0000000000
 12  11   1   4   -1.0000000000
  5  11   1   5    1.0000000000
 10  11   1   5   -1.0000000000
 13  11   1   5   -1.0000000000
  6  11   2   2    1.0000000000
 18  11   2   2   -1.0000000000
 19  11   2   2   -1.0000000000
  7  11   2   3    1.0000000000
 19  11   2   3   -1.0000000000
 23  11   2   3   -1.0000000000
  9  11   2   4    1.0000000000
 21  11   2   4   -1.0000000000
 24  11   2   4   -1.0000000000
 10  11   2   5    1.0000000000
 22  11   2   5   -1.0000000000
 25  11   2   5   -1.0000000000
 11  11   3   3    1.0000000000
 23  11   3   3   -1.0000000000
 30  11   3   3   -1.0000000000
 12  11   3   4    1.0000000000
 24  11   3   4   -1.0000000000
 31  11   3   4   -1.0000000000
 13  11   3   5    1.0000000000
 25  11   3   5   -1.0000000000
 32  11   3   5   -1.0000000000
 15  11   4   4    1.0000000000
 27  11   4   4   -1.0000000000
 33  11   4   4   -1.0000000000
 16  11   4   5    1.0000000000
 28  11   4   5   -1.0000000000
 34  11   4   5   -1.0000000000
 17  11   5   5    1.0000000000
 29  11   5   5   -1.0000000000
 35  11   5   5   -1.0000000000
  0  12   1   1   -0.1538461538
  1  12   1   1   -0.2500000000
  2  12   1   1    1.0000000000
  1  12   1   2    0.1538461538
  6  12   1   2   -0.2500000000
  7  12   1   2    1.0000000000
  2  12   1   3    0.1538461538
  7  12   1   3   -0.2500000000
 11  12   1   3    1.0000000000
  4  12   1   4    0.1538461538
  9  12   1   4   -0.2500000000
 12  12   1   4    1.0000000000
  5  12   1   5    0.1538461538
 10  12   1   5   -0.2500000000
 13  12   1   5    1.0000000000
  6  12   2   2    0.1538461538
 18  12   2   2   -0.2500000000
 19  12   2   2    1.0000000000
  7  12   2   3    0.1538461538
 19  12   2   3   -0.2500000000
 23  12   2   3    1.0000000000
  9  12   2   4    0.1538461538
 21  12   2   4   -0.2500000000
 24  12   2   4    1.0000000000
 10  12   2   5    0.1538461538
 22  12   2   5   -0.2500000000
 25  12   2   5    1.0000000000
 11  12   3   3    0.1538461538
 23  12   3   3   -0.2500000000
 30  12   3   3    1.0000000000
 12  12   3   4    0.1538461538
 24  12   3   4   -0.2500000000
 31  12   3   4    1.0000000000
 13  12   3   5    0.1538461538
 25  12   3   5   -0.2500000000
 32  12   3   5    1.0000000000
 15  12   4   4    0.1538461538
 27  12   4   4   -0.2500000000
 33  12   4   4    1.0000000000
 16  12   4   5    0.1538461538
 28  12   4   5   -0.2500000000
 34  12   4   5    1.0000000000
 17  12   5   5    0.1538461538
 29  12   5   5   -0.2500000000
 35  12   5   5    1.0000000000
  1  13   1   1    1.0000000000
  6  13   1   2    1.0000000000
  8  13   1   3    1.0000000000
 18  13   2   2    1.0000000000
 20  13   2   3    1.0000000000
 26  13   3   3    1.0000000000
  2  14   1   1    1.0000000000
  7  14   1   2    1.0000000000
 11  14   1   3    1.0000000000
 12  14   1   4    1.0000000000
 13  14   1   5    1.0000000000
 19  14   2   2    1.0000000000
 23  14   2   3    1.0000000000
 24  14   2   4    1.0000000000
 25  14   2   5    1.0000000000
 30  14   3   3    1.0000000000
 31  14   3   4    1.0000000000
 32  14   3   5    1.0000000000
 33  14   4   4    1.0000000000
 34  14   4   5    1.0000000000
 35  14   5   5    1.0000000000
  0  15   1   1   -1.0000000000
  1  15   1   1   -1.0000000000
  1  15   1   2    1.0000000000
  6  15   1   2   -1.0000000000
  3  15   1   3    1.0000000000
  8  15   1   3   -1.0000000000
  6  15   2   2    1.0000000000
 18  15   2   2   -1.0000000000
  8  15   2   3    1.0000000000
 20  15   2   3   -1.0000000000
 14  15   3   3    1.0000000000
 26  15   3   3   -1.0000000000
  0  16   1   1   -1.0000000000
  2  16   1   1   -1.0000000000
  1  16   1   2    1.0000000000
  7  16   1   2   -1.0000000000
  2  16   1   3    1.0000000000
 11  16   1   3   -1.0000000000
  4  16   1   4    1.0000000000
 12  16   1   4   -1.0000000000
  5  16   1   5    1.0000000000
 13  16   1   5   -1.0000000000
  6  16   2   2    1.0000000000
 19  16   2   2   -1.0000000000
  7  16   2   3    1.0000000000
 23  16   2   3   -1.0000000000
  9  16   2   4    1.0000000000
 24  16   2   4   -1.0000000000
 10  16   2   5    1.0000000000
 25  16   2   5   -1.0000000000
 11  16   3   3    1.0000000000
 30  16   3   3   -1.0000000000
 12  16   3   4    1.0000000000
 31  16   3   4   -1.0000000000
 13  16   3   5    1.0000000000
 32  16   3   5   -1.0000000000
 15  16   4   4    1.0000000000
 33  16   4   4   -1.0000000000
 16  16   4   5    1.0000000000
 34  16   4   5   -1.0000000000
 17  16   5   5    1.0000000000
 35  16   5   5   -1.0000000000
